50

94 36 283
92 40 342
89 4 279
89 1 352
87 41 285
82 4 256
82 6 310
81 28 332
80 7 305
80 11 306
78 23 236
71 10 239
70 12 338
67 30 323
66 8 221
63 9 249
58 12 312
52 20 242
50 20 319
48 3 289
46 18 188
36 6 269
34 11 245
33 10 326
31 2 348
30 1 223
27 10 238
26 7 237
21 11 186
21 4 350
20 5 323
19 8 294
18 7 265
18 3 358
17 2 102
12 4 345
11 5 47
11 2 112
11 5 336
11 5 175
10 1 73
10 3 355
7 3 152
7 4 342
7 2 302
6 2 102
5 1 212
5 1 78
4 2 161
3 2 302
